WARNING: for repeatability, setting FPU to use double precision
============================[ Problem Statistics ]=============================
|                                                                             |
|  Number of variables:           500                                         |
|  Number of clauses:           15526                                         |
|  Parse time:                   0.01 s                                       |
|                                                                             |
c ============================[ Search Statistics ]==============================
c | Conflicts |          ORIGINAL         |          LEARNT          | Progress |
c |           |    Vars  Clauses Literals |    Limit  Clauses Lit/Cl |          |
c ===============================================================================
We had 265 decisions of which only 0 were on extended
We had 81443 decisions of which only 0 were on extended
We had 109660 decisions of which only 0 were on extended
We had 130398 decisions of which only 0 were on extended
We had 151708 decisions of which only 0 were on extended
We had 168790 decisions of which only 0 were on extended
We had 182746 decisions of which only 0 were on extended
We had 196739 decisions of which only 0 were on extended
We had 210741 decisions of which only 0 were on extended
We had 224515 decisions of which only 0 were on extended
We had 237659 decisions of which only 0 were on extended
We had 250912 decisions of which only 0 were on extended
We had 264195 decisions of which only 0 were on extended
We had 277573 decisions of which only 0 were on extended
We had 291085 decisions of which only 0 were on extended
We had 304214 decisions of which only 0 were on extended
We had 317289 decisions of which only 0 were on extended
We had 331000 decisions of which only 0 were on extended
We had 344698 decisions of which only 0 were on extended
Window full
Deactivate
We had 358437 decisions of which only 0 were on extended
We had 371571 decisions of which only 0 were on extended
We had 384556 decisions of which only 0 were on extended
We had 397691 decisions of which only 0 were on extended
We had 410796 decisions of which only 0 were on extended
We had 423877 decisions of which only 0 were on extended
We had 437343 decisions of which only 0 were on extended
We had 450815 decisions of which only 0 were on extended
We had 464573 decisions of which only 0 were on extended
We had 477927 decisions of which only 0 were on extended
We had 491355 decisions of which only 0 were on extended
c ===============================================================================
restarts                  : 823
conflicts                 : 293789         (4406 /sec)
decisions                 : 496599         (0.00 % random) (7447 /sec)
propagations              : 14427919       (216355 /sec)
conflict literals         : 16207775       (21.62 % deleted)

conflicts w/ DIP found    : 114385         (38.93 % of conflicts)
conflicts w/ dangerous DIP: 0              (0.00 % of conflicts)
conflicts w/ DIP-learning : 1              (0.00 % of conflicts)
decisions on ext vars     : 0              (0.00 % of decisions)
total ext vars            : 1           
tried delete ext vars     : 0           
deleted ext vars          : 0           
max ext vars              : 1           

Memory used               : 44.00 MB
CPU time                  : 66.6864 s
DIP computation time      : 1.06995 s (1.60 % of total time)
ER_sel time               : 0.343645 s
ER_add time               : 4.6e-05 s
ER_delC time              : 0 s
ER_delV time              : 0 s
ER_sub time               : 0.229878 s
ER_stat time              : 0 s

UNSATISFIABLE
